Optimal - objective value 320.00000000
      0 x0_1                   1                      10
      3 x0_4                   1                      30
      6 x0_7                   1                      50
     11 x1_2                   1                       0
     22 x2_3                   1                       0
     30 x3_0                   1                      10
     45 x4_6                   1                      10
     50 x5_0                   1                      20
     65 x6_5                   1                     -10
     77 x7_8                   1                       0
     89 x8_10                  1                       0
     90 x9_0                   1                      40
    109 x10_9                  1                       0
    110 u1                     7                       0
    111 u2                    13                       0
    112 u3                    15                       0
    113 u4                     7                       0
    114 u5                    14                       0
    115 u6                    10                       0
    116 u7                     3                       0
    117 u8                     6                       0
    118 u9                    15                       0
    119 u10                    8                       0
